(set-info :source |printed by MathSAT|)
(declare-fun ldv_mutex_disc_mutex_of_usb_serial () (_ BitVec 32))

*:
(assert (let ((.def_16876 (= ldv_mutex_disc_mutex_of_usb_serial (_ bv1 32)))).def_16876))
(assert (let ((.def_16881 (= ldv_mutex_disc_mutex_of_usb_serial (_ bv2 32)))).def_16881))

